\ENCODING=ISO-8859-1
\Problem name: IloCplex

Minimize
 f: 50 y_0 + 50 y_1 + 20 x_0_0 + 15 x_0_1 + 10 x_0_2 + 40 x_1_0 + 30 x_1_2
Subject To
 c1:  x_0_0 + x_1_0  = 1
 c2:  x_0_1  = 1
 c3:  x_0_2 + x_1_2  = 1
 c4:  - y_0 + x_0_0 <= 0
 c5:  - y_0 + x_0_1 <= 0
 c6:  - y_0 + x_0_2 <= 0
 c7:  - y_1 + x_1_0 <= 0
 c8:  - y_1 + x_1_2 <= 0
 c9:  - 5 y_0 + 2 x_0_0 + 2 x_0_1 + 2 x_0_2 <= 0
 c10: - 5 y_1 + 2 x_1_0 + 2 x_1_2 <= 0
Bounds
 0 <= y_0 <= 1
 0 <= y_1 <= 1
 0 <= x_0_0 <= 1
 0 <= x_0_1 <= 1
 0 <= x_0_2 <= 1
 0 <= x_1_0 <= 1
 0 <= x_1_2 <= 1
Binaries
 y_0  y_1  x_0_0  x_0_1  x_0_2  x_1_0  x_1_2 
End
